p edge 61 896
e 2 1
e 3 2
e 4 1
e 5 1
e 5 4
e 6 2
e 6 4
e 7 1
e 7 5
e 7 6
e 8 1
e 8 4
e 9 2
e 9 5
e 9 6
e 10 1
e 10 4
e 10 5
e 10 7
e 10 8
e 11 1
e 11 2
e 11 3
e 11 5
e 11 7
e 11 10
e 12 1
e 12 3
e 12 4
e 12 8
e 13 2
e 13 8
e 13 10
e 14 1
e 14 2
e 14 8
e 15 2
e 15 4
e 15 5
e 15 8
e 15 11
e 15 12
e 15 13
e 16 1
e 16 2
e 16 3
e 16 4
e 16 6
e 16 10
e 16 11
e 16 15
e 17 5
e 17 6
e 17 8
e 17 10
e 17 12
e 17 14
e 18 2
e 18 5
e 18 6
e 18 11
e 18 12
e 18 13
e 18 14
e 18 17
e 19 1
e 19 4
e 19 7
e 19 9
e 19 10
e 19 12
e 19 14
e 19 16
e 19 17
e 19 18
e 20 1
e 20 5
e 20 6
e 20 8
e 20 9
e 20 10
e 20 11
e 20 13
e 20 14
e 20 15
e 20 17
e 20 19
e 21 1
e 21 2
e 21 3
e 21 6
e 21 7
e 21 8
e 21 10
e 21 12
e 21 13
e 21 14
e 21 16
e 21 20
e 22 1
e 22 6
e 22 7
e 22 11
e 22 12
e 22 13
e 22 19
e 22 20
e 22 21
e 23 4
e 23 6
e 23 7
e 23 8
e 23 10
e 23 11
e 23 14
e 23 15
e 23 16
e 23 18
e 23 22
e 24 3
e 24 4
e 24 6
e 24 8
e 24 14
e 24 17
e 24 21
e 25 1
e 25 8
e 25 9
e 25 10
e 25 12
e 25 16
e 25 17
e 25 18
e 25 19
e 25 21
e 25 22
e 25 23
e 26 2
e 26 9
e 26 12
e 26 15
e 26 16
e 26 20
e 26 21
e 26 22
e 26 24
e 26 25
e 27 2
e 27 5
e 27 6
e 27 10
e 27 12
e 27 13
e 27 15
e 27 19
e 27 20
e 27 22
e 27 23
e 27 24
e 27 26
e 28 1
e 28 2
e 28 5
e 28 9
e 28 11
e 28 12
e 28 13
e 28 17
e 28 19
e 28 21
e 28 25
e 28 26
e 29 2
e 29 3
e 29 12
e 29 14
e 29 15
e 29 16
e 29 17
e 29 18
e 29 19
e 29 20
e 29 21
e 29 22
e 29 23
e 29 25
e 29 27
e 30 1
e 30 3
e 30 9
e 30 12
e 30 13
e 30 17
e 30 18
e 30 24
e 30 26
e 30 27
e 30 28
e 30 29
e 31 1
e 31 3
e 31 4
e 31 5
e 31 6
e 31 8
e 31 9
e 31 12
e 31 13
e 31 14
e 31 16
e 31 17
e 31 18
e 31 19
e 31 20
e 31 22
e 31 24
e 31 25
e 31 27
e 31 28
e 31 29
e 31 30
e 32 4
e 32 6
e 32 9
e 32 10
e 32 11
e 32 13
e 32 15
e 32 16
e 32 18
e 32 20
e 32 22
e 32 24
e 32 27
e 32 28
e 32 29
e 32 31
e 33 2
e 33 5
e 33 8
e 33 16
e 33 17
e 33 18
e 33 20
e 33 22
e 33 23
e 33 25
e 33 27
e 34 1
e 34 4
e 34 5
e 34 8
e 34 9
e 34 10
e 34 20
e 34 21
e 34 22
e 34 25
e 34 26
e 34 27
e 34 30
e 34 33
e 35 1
e 35 2
e 35 3
e 35 6
e 35 7
e 35 10
e 35 13
e 35 14
e 35 15
e 35 16
e 35 17
e 35 19
e 35 23
e 35 24
e 35 27
e 35 29
e 35 30
e 35 33
e 35 34
e 36 1
e 36 3
e 36 4
e 36 5
e 36 6
e 36 9
e 36 10
e 36 12
e 36 13
e 36 15
e 36 18
e 36 21
e 36 22
e 36 25
e 36 27
e 36 28
e 36 30
e 36 35
e 37 1
e 37 2
e 37 3
e 37 5
e 37 6
e 37 7
e 37 9
e 37 13
e 37 17
e 37 18
e 37 23
e 37 26
e 37 27
e 37 28
e 37 29
e 37 30
e 37 31
e 37 32
e 37 33
e 37 34
e 37 36
e 38 3
e 38 7
e 38 8
e 38 11
e 38 13
e 38 15
e 38 16
e 38 19
e 38 20
e 38 22
e 38 23
e 38 26
e 38 27
e 38 28
e 38 33
e 39 1
e 39 5
e 39 9
e 39 10
e 39 11
e 39 12
e 39 13
e 39 14
e 39 18
e 39 20
e 39 23
e 39 25
e 39 28
e 39 35
e 39 36
e 39 38
e 40 3
e 40 7
e 40 8
e 40 9
e 40 14
e 40 16
e 40 17
e 40 18
e 40 20
e 40 21
e 40 22
e 40 24
e 40 33
e 40 34
e 40 35
e 40 36
e 40 39
e 41 2
e 41 4
e 41 7
e 41 8
e 41 10
e 41 13
e 41 14
e 41 15
e 41 17
e 41 19
e 41 20
e 41 21
e 41 22
e 41 23
e 41 26
e 41 27
e 41 28
e 41 31
e 41 32
e 41 34
e 41 35
e 41 37
e 41 39
e 41 40
e 42 1
e 42 2
e 42 3
e 42 4
e 42 6
e 42 10
e 42 13
e 42 16
e 42 17
e 42 20
e 42 21
e 42 22
e 42 23
e 42 25
e 42 26
e 42 27
e 42 30
e 42 32
e 42 34
e 42 35
e 42 36
e 42 39
e 42 40
e 43 1
e 43 2
e 43 3
e 43 5
e 43 7
e 43 8
e 43 9
e 43 10
e 43 13
e 43 14
e 43 16
e 43 17
e 43 18
e 43 19
e 43 22
e 43 24
e 43 26
e 43 27
e 43 30
e 43 31
e 43 35
e 43 36
e 43 37
e 43 38
e 44 1
e 44 2
e 44 5
e 44 6
e 44 8
e 44 9
e 44 10
e 44 13
e 44 15
e 44 18
e 44 25
e 44 27
e 44 29
e 44 32
e 44 33
e 44 35
e 44 36
e 44 37
e 44 38
e 44 41
e 45 3
e 45 6
e 45 11
e 45 12
e 45 13
e 45 14
e 45 15
e 45 17
e 45 18
e 45 23
e 45 25
e 45 28
e 45 29
e 45 30
e 45 34
e 45 35
e 45 36
e 45 40
e 45 41
e 45 42
e 46 2
e 46 3
e 46 4
e 46 6
e 46 9
e 46 11
e 46 12
e 46 13
e 46 14
e 46 15
e 46 19
e 46 21
e 46 22
e 46 23
e 46 26
e 46 28
e 46 29
e 46 32
e 46 34
e 46 37
e 46 40
e 46 41
e 46 42
e 46 44
e 47 1
e 47 2
e 47 3
e 47 5
e 47 8
e 47 9
e 47 10
e 47 11
e 47 13
e 47 15
e 47 16
e 47 19
e 47 20
e 47 21
e 47 22
e 47 25
e 47 26
e 47 27
e 47 28
e 47 39
e 47 41
e 47 43
e 47 46
e 48 1
e 48 2
e 48 4
e 48 7
e 48 9
e 48 11
e 48 12
e 48 13
e 48 16
e 48 17
e 48 18
e 48 22
e 48 23
e 48 25
e 48 27
e 48 31
e 48 33
e 48 34
e 48 35
e 48 37
e 48 39
e 48 40
e 48 42
e 48 45
e 48 46
e 49 1
e 49 2
e 49 3
e 49 5
e 49 9
e 49 10
e 49 12
e 49 14
e 49 15
e 49 26
e 49 27
e 49 29
e 49 32
e 49 33
e 49 35
e 49 37
e 49 41
e 49 42
e 49 43
e 50 3
e 50 5
e 50 7
e 50 10
e 50 12
e 50 13
e 50 14
e 50 16
e 50 21
e 50 25
e 50 26
e 50 27
e 50 29
e 50 32
e 50 33
e 50 34
e 50 35
e 50 36
e 50 37
e 50 39
e 50 40
e 50 42
e 50 43
e 50 44
e 50 46
e 51 1
e 51 2
e 51 3
e 51 9
e 51 11
e 51 12
e 51 13
e 51 14
e 51 18
e 51 21
e 51 24
e 51 25
e 51 26
e 51 27
e 51 29
e 51 31
e 51 32
e 51 34
e 51 35
e 51 37
e 51 38
e 51 39
e 51 41
e 51 42
e 51 43
e 51 44
e 51 45
e 51 47
e 51 48
e 51 49
e 51 50
e 52 1
e 52 2
e 52 7
e 52 8
e 52 9
e 52 10
e 52 13
e 52 14
e 52 15
e 52 17
e 52 18
e 52 19
e 52 22
e 52 24
e 52 25
e 52 27
e 52 30
e 52 32
e 52 33
e 52 35
e 52 37
e 52 39
e 52 43
e 52 45
e 52 46
e 52 47
e 52 48
e 52 49
e 52 50
e 52 51
e 53 1
e 53 5
e 53 6
e 53 7
e 53 9
e 53 10
e 53 14
e 53 17
e 53 18
e 53 19
e 53 20
e 53 22
e 53 25
e 53 29
e 53 33
e 53 34
e 53 35
e 53 36
e 53 37
e 53 40
e 53 43
e 53 44
e 54 1
e 54 2
e 54 4
e 54 6
e 54 9
e 54 12
e 54 13
e 54 16
e 54 17
e 54 18
e 54 19
e 54 21
e 54 23
e 54 24
e 54 25
e 54 27
e 54 28
e 54 30
e 54 31
e 54 34
e 54 38
e 54 39
e 54 40
e 54 45
e 54 47
e 54 50
e 54 51
e 54 53
e 55 2
e 55 3
e 55 5
e 55 8
e 55 11
e 55 12
e 55 13
e 55 14
e 55 17
e 55 23
e 55 24
e 55 25
e 55 26
e 55 27
e 55 30
e 55 32
e 55 33
e 55 36
e 55 40
e 55 41
e 55 42
e 55 43
e 55 45
e 55 51
e 55 52
e 56 2
e 56 5
e 56 6
e 56 8
e 56 9
e 56 10
e 56 11
e 56 18
e 56 20
e 56 22
e 56 23
e 56 25
e 56 26
e 56 28
e 56 29
e 56 31
e 56 34
e 56 35
e 56 36
e 56 38
e 56 39
e 56 40
e 56 41
e 56 43
e 56 44
e 56 47
e 56 50
e 56 51
e 57 1
e 57 2
e 57 3
e 57 7
e 57 15
e 57 16
e 57 24
e 57 28
e 57 29
e 57 30
e 57 31
e 57 32
e 57 36
e 57 37
e 57 38
e 57 39
e 57 40
e 57 42
e 57 43
e 57 49
e 57 50
e 57 53
e 58 1
e 58 2
e 58 6
e 58 9
e 58 10
e 58 11
e 58 12
e 58 16
e 58 23
e 58 31
e 58 33
e 58 34
e 58 35
e 58 37
e 58 39
e 58 40
e 58 43
e 58 46
e 58 48
e 58 51
e 58 52
e 58 53
e 58 54
e 58 55
e 58 56
e 59 1
e 59 3
e 59 5
e 59 6
e 59 8
e 59 10
e 59 11
e 59 12
e 59 13
e 59 14
e 59 16
e 59 17
e 59 19
e 59 20
e 59 21
e 59 23
e 59 24
e 59 27
e 59 28
e 59 30
e 59 34
e 59 35
e 59 39
e 59 42
e 59 43
e 59 44
e 59 45
e 59 50
e 59 52
e 59 53
e 59 57
e 59 58
e 60 3
e 60 7
e 60 11
e 60 16
e 60 18
e 60 20
e 60 22
e 60 23
e 60 26
e 60 27
e 60 28
e 60 29
e 60 34
e 60 37
e 60 39
e 60 40
e 60 42
e 60 45
e 60 46
e 60 47
e 60 48
e 60 50
e 60 54
e 60 57
e 61 1
e 61 2
e 61 3
e 61 5
e 61 6
e 61 8
e 61 14
e 61 16
e 61 18
e 61 19
e 61 20
e 61 26
e 61 27
e 61 28
e 61 29
e 61 32
e 61 33
e 61 35
e 61 36
e 61 37
e 61 39
e 61 40
e 61 41
e 61 43
e 61 47
e 61 48
e 61 49
e 61 52
e 61 54
e 61 55
e 61 57
e 61 58
e 61 59
